50, 603
34, 34
16, 16
48, 48
30, 30
2, 2
28, 28
22, 22
40, 40
20, 20
6, 6
18, 18
16, 16
20, 20
2, 2
32, 32
34, 34
46, 46
8, 8
2, 2
22, 22
16, 16
38, 38
16, 16
2, 2
48, 48
42, 42
34, 34
18, 18
26, 26
4, 4
34, 34
12, 12
40, 40
26, 26
50, 50
22, 22
12, 12
20, 20
10, 10
30, 30
18, 18
38, 38
50, 50
32, 32
42, 42
2, 2
12, 12
50, 50
10, 10
4, 4
